proyfinal/src/viki/013/experimentInOfficeAgust.take6.output/f66a1ea4-47d0-4635-9ead-ba64b1993049.als.dat
{'cnf.clauses': '118081',
 'cnf.totvars': '69608',
 'conflict literals': '1',
 'conflicts': '2',
 'decisions': '845',
 'memused.mb': '16.45',
 'outcome': 'UNSAT',
 'propagations': '18772',
 'restarts': '1',
 'solver.msecs': 34,
 'task.msecs': 81}
