proyfinal/src/viki/013/experimentInOfficeAgust.take6.output/f66a1ea4-47d0-4635-9ead-ba64b1993049.als.out
Reading from standard input... Use '--help' for help.
============================[ Problem Statistics ]=============================
|                                                                             |
|  Number of variables:         69608                                         |
|  Number of clauses:          118081                                         |
|  Parse time:                   0.03 s                                       |
|                                                                             |
============================[ Search Statistics ]==============================
| Conflicts |          ORIGINAL         |          LEARNT          | Progress |
|           |    Vars  Clauses Literals |    Limit  Clauses Lit/Cl |          |
===============================================================================
===============================================================================
restarts              : 1
conflicts             : 2              (57 /sec)
decisions             : 845            (0.00 % random) (24277 /sec)
propagations          : 18772          (539317 /sec)
conflict literals     : 1              (0.00 % deleted)
Memory used           : 16.45 MB
CPU time              : 0.034807 s

UNSATISFIABLE
